(set-logic LIA)
(synth-fun next ((brake Int) (distance Int) (speed Int) (throttle Int) (ignition Bool) (time Int) ) Int
	((Start Int) (Var Int) (StartBool Bool))
	((Start Int (
				 1
				 3
				 (ite StartBool Start Start)))

	(Var Int (
			 0
			 1
			 2
			 291
			 1023
			 brake
			 distance
			 speed
			 throttle
			 time
			 (+ Var Var)						
			 (- Var Var)						
			 (* Var Var)))

	(StartBool Bool (
				 	 ignition
					(= Var Var)						
					(>= Var Var)						
					(<= Var Var)						
					(and StartBool StartBool)			
					(or  StartBool StartBool)				
					(not StartBool)))))

(constraint (= (next 1 0 0 0 true 1117 ) 1))
(constraint (= (next 0 0 3 0 true 696 ) 3))
(constraint (= (next 0 0 2 0 true 1255 ) 3))

(check-synth)
